p cnf 38 113
a 4 12 0
e 1 2 3 5 6 7 8 9 10 11 13 14 15 16 17 18 19 20 21 22 23 24 25 26 27 28 29 30 31 32 33 34 35 36 37 38 0
-4 -2 0
-4 -3 0
2 3 4 0
5 1 0
5 -4 0
-1 4 -5 0
7 -1 0
7 3 0
1 -3 -7 0
8 -6 0
8 -7 0
6 7 -8 0
-9 -5 0
-9 -8 0
5 8 9 0
-1 4 -10 0
1 -4 -10 0
-1 -4 10 0
1 4 10 0
11 10 0
11 -4 0
-10 4 -11 0
-3 12 -13 0
3 -12 -13 0
-3 -12 13 0
3 12 13 0
-14 -11 0
-14 13 0
11 -13 14 0
-14 15 -16 0
14 -15 -16 0
-14 -15 16 0
14 15 16 0
-9 -16 -17 0
9 16 -17 0
-9 16 17 0
9 -16 17 0
-18 19 -20 0
18 -19 -20 0
-18 -19 20 0
18 19 20 0
2 19 -21 0
-2 -19 -21 0
2 -19 21 0
-2 19 21 0
22 20 0
22 -21 0
-20 21 -22 0
-23 -17 0
-23 22 0
17 -22 23 0
-24 -3 0
-24 -10 0
3 10 24 0
23 -24 -25 0
-23 24 -25 0
23 24 25 0
-23 -24 25 0
-26 18 0
-26 19 0
-18 -19 26 0
27 -2 0
27 -13 0
2 13 -27 0
-28 -6 0
-28 5 0
6 -5 28 0
27 28 -29 0
-27 -28 -29 0
27 -28 29 0
-27 28 29 0
30 -1 0
30 -2 0
1 2 -30 0
-31 -8 0
-31 -5 0
8 5 31 0
-30 31 -32 0
30 -31 -32 0
-30 -31 32 0
30 31 32 0
33 -1 0
33 32 0
1 -32 -33 0
-34 -10 0
-34 3 0
10 -3 34 0
33 34 -35 0
-33 -34 -35 0
33 -34 35 0
-33 34 35 0
-36 29 0
-36 35 0
-29 -35 36 0
-26 36 -37 0
26 -36 -37 0
-26 -36 37 0
26 36 37 0
25 37 -38 0
-25 -37 -38 0
25 -37 38 0
-25 37 38 0
18 4 14 36 -30 -10 -7 8 0
8 -16 -35 23 0
25 17 22 27 -23 0
10 13 11 -1 18 0
37 -4 -18 -30 0
36 -28 -16 -34 32 31 0
22 29 27 -20 0
-34 20 37 6 0
17 -22 7 0
-32 11 8 9 0
38 0
